setgridsize(128, 32, 1)
setcellsize(500e-9/128, 125e-9/32, 3e-9)

Msat  = 800e3
Aex   = 13e-12
alpha = 0.02
m  = uniform(1, .1, 0)

B_ext = vector(10e-3, 0, 0)

relax()

tableautosave(10e-12)
A := 1e-3
f := 1e9
B_ext = vector(10e-3, A * sin(2*pi*f*t) 0)
run(1e-9)

